150 20
5
9 55 1 30 65 32 57 7 87 46 63 29 91 43 97 13 73 38 23 93 1 73 62 25 37 99 67 88 81 63 74 37 62 16 32 60 3 59 63 59 28 97 4 63 14 13 59 36 77 33 58 19 12 71 25 89 8 91 71 10 52 44 4 90 68 59 90 73 87 36 71 92 43 67 61 91 30 98 41 25 45 48 37 18 55 78 95 62 91 53 6 18 37 56 17 80 39 25 14 87 1 84 31 11 73 62 29 0 25 2 27 58 3 39 14 7 5 22 83 88 80 45 74 85 69 13 85 66 87 35 60 37 91 98 92 92 16 85 35 35 66 37 18 61 72 89 20 24 61 50
931 941 905 977 1009 1051 1135 885 1218 1193 1087 438 1208 954 1153 1135 1015 871 1048 1080
0 0 0 0 0 0 0 0 0 0 0 0 0 72 19 0 0 0 0 0 0 0 0 0 40 0 0 0 0 38 0 0 0 0 0 0 0 0 0 0 0 0 0 22 0 73 0 0 0 0 0 0 0 0 0 0 0 0 0 84 0 0 0 0 0 0 0 4 0 0 0 0 0 0 0 0 54 0 90 0 0 0 0 0 0 0 13 0 0 0 0 0 0 0 79 33 0 0 67 95 0 0 0 0 0 0 0 0 0 0 0 13 0 68 0 0 0 0 0 0 0 0 0 0 0 0 0 0 0 74 0 0 0 0 0 82 0 0 0 0 0 0 0 28 0 0 38 0 53 0
0 0 0 0 0 0 0 23 13 0 0 0 97 0 0 0 0 0 0 0 0 0 0 0 0 12 0 0 0 0 84 91 24 0 0 0 0 0 0 0 0 0 0 0 0 0 0 0 0 0 0 0 0 0 0 0 0 0 0 0 0 0 0 0 0 0 0 0 0 0 0 0 0 0 0 0 0 58 0 0 0 0 0 0 0 0 0 0 91 0 0 0 0 0 0 0 0 0 0 83 0 0 97 4 46 0 0 0 95 0 0 0 0 0 0 18 13 0 0 0 0 0 0 42 15 3 0 0 46 0 0 0 0 0 0 77 0 0 0 0 0 0 0 0 0 0 0 0 0 0
0 0 0 0 0 0 0 0 0 64 0 0 66 0 8 0 0 0 0 0 0 0 0 0 0 0 0 0 0 54 0 0 0 0 0 0 89 0 0 0 0 0 0 0 0 0 0 0 0 0 0 0 0 5 0 0 0 0 0 0 92 0 0 0 0 35 0 67 0 0 0 0 0 0 0 0 0 0 0 0 0 0 81 0 0 0 0 63 39 54 0 0 0 8 0 0 0 0 0 0 0 0 0 0 0 0 0 25 0 0 0 0 0 0 7 0 24 0 0 0 0 0 2 0 0 0 90 0 0 0 0 0 0 0 13 0 0 0 0 74 0 0 0 88 0 0 0 0 0 0
0 0 0 0 0 0 0 0 0 0 0 17 0 0 0 0 0 0 39 96 0 0 0 0 82 60 0 0 0 0 0 0 0 0 0 0 0 0 0 0 0 0 0 0 0 0 0 0 0 49 76 2 0 0 0 81 0 14 0 0 0 0 0 0 0 0 0 0 0 0 0 0 0 0 0 0 0 0 0 0 0 0 0 0 0 0 0 0 0 0 17 52 0 0 0 0 0 0 0 98 0 0 0 77 51 0 0 0 0 0 0 0 0 0 0 0 80 0 0 0 0 0 0 0 0 0 0 0 0 64 0 10 0 0 0 0 0 44 0 69 0 0 0 0 0 0 14 0 0 0
0 0 18 0 18 62 0 0 0 0 0 0 0 0 0 0 0 48 0 26 0 0 0 0 9 0 0 0 0 0 0 0 0 0 11 14 0 0 0 0 0 0 0 28 0 0 0 0 85 0 0 78 0 86 77 0 0 0 4 49 0 0 0 0 0 0 0 0 0 0 0 0 0 0 52 0 0 0 38 0 0 0 0 0 52 0 0 95 0 0 0 0 0 18 0 0 0 0 64 0 0 53 0 0 71 0 47 0 0 0 70 23 0 0 0 0 0 0 0 0 0 0 0 0 10 0 74 0 0 0 0 0 0 0 0 0 0 13 0 0 0 0 0 0 0 0 0 0 0 0
0 0 0 0 0 0 81 0 0 0 0 0 0 0 0 50 0 0 34 0 0 0 0 0 0 0 0 9 0 0 0 64 0 0 0 11 0 0 0 0 0 0 0 60 0 0 0 0 0 0 0 0 89 0 0 0 0 0 0 30 0 0 72 0 0 0 0 0 0 75 0 0 96 0 0 42 0 0 48 0 0 0 0 0 0 89 0 0 0 0 0 51 0 0 0 0 95 0 0 37 0 0 0 0 0 0 0 0 0 0 0 0 0 0 0 0 0 0 0 0 0 0 0 0 0 0 0 30 0 0 0 0 0 0 0 0 0 0 0 0 96 0 0 53 0 0 0 0 60 0
0 0 0 0 0 0 0 0 0 0 0 0 0 0 0 0 0 0 97 0 0 88 0 0 0 0 0 0 0 0 0 0 0 0 0 0 0 0 0 0 0 96 0 0 0 0 28 0 0 0 0 0 0 0 16 0 0 34 0 45 0 0 32 0 20 0 0 0 19 0 0 28 0 73 3 0 26 0 0 0 0 38 0 0 0 0 0 0 0 24 0 0 82 0 0 27 46 0 0 0 0 70 0 18 0 0 0 85 0 0 0 0 0 92 0 58 0 10 0 0 0 0 77 0 0 0 0 0 0 0 0 0 92 0 0 0 0 0 0 0 0 0 0 0 0 0 66 0 0 0
0 0 52 0 0 0 0 0 30 0 0 0 0 17 0 38 0 0 17 0 0 0 0 0 0 0 0 0 0 0 23 0 22 0 0 0 0 0 72 0 0 0 0 0 63 0 0 0 0 0 0 0 0 0 0 0 0 0 0 0 0 0 0 0 0 0 0 0 0 0 0 0 96 0 0 0 0 0 0 0 86 0 0 77 0 0 0 0 0 0 0 0 0 0 0 0 0 0 0 0 0 0 0 0 0 0 0 0 0 0 0 0 0 0 0 0 0 0 0 0 0 95 0 0 0 0 0 0 68 0 89 0 0 0 0 96 0 25 0 0 0 46 0 0 86 0 0 0 0 0
0 0 0 0 37 0 0 0 0 0 0 0 0 0 0 0 0 0 49 0 0 0 0 0 0 49 0 0 0 0 0 0 0 0 0 0 83 0 0 10 0 0 25 0 0 0 0 0 28 0 0 0 0 0 0 69 0 0 0 0 0 0 0 89 0 0 0 0 0 0 86 0 1 0 0 0 39 0 0 0 0 98 0 0 80 0 0 0 85 0 0 0 14 0 0 0 0 0 0 29 0 98 0 46 0 43 0 50 71 0 0 0 9 92 43 14 0 0 0 0 0 0 0 0 0 0 25 0 61 0 0 0 0 0 69 0 30 0 0 0 0 0 0 0 0 0 0 0 29 0
23 94 0 0 0 0 0 0 0 0 0 0 0 0 0 0 0 0 65 0 0 0 0 0 49 0 0 0 79 0 0 0 0 0 0 0 0 0 0 43 0 0 0 0 0 0 0 0 0 0 0 0 0 0 0 0 0 0 0 27 0 18 0 62 0 0 0 0 0 0 0 15 0 0 0 0 0 0 97 0 0 44 4 0 0 35 0 84 0 12 0 38 0 0 0 0 0 51 0 0 0 0 0 0 0 0 0 0 0 0 0 0 0 0 2 0 30 0 0 14 0 0 0 0 16 0 91 16 0 0 99 0 0 0 0 94 0 80 0 0 0 0 0 0 0 0 0 0 0 0
0 0 0 0 32 92 0 0 0 0 0 0 0 0 0 0 0 0 0 0 0 0 0 69 0 0 0 0 0 0 0 0 0 0 40 0 0 0 0 0 0 82 0 0 0 0 0 0 92 0 69 0 0 0 0 0 0 0 0 62 0 0 0 0 0 0 0 0 0 0 0 0 0 0 0 0 0 0 0 59 0 0 0 0 0 0 0 0 0 0 92 0 0 0 0 0 0 0 0 0 0 0 86 0 0 29 92 0 0 0 0 0 0 0 0 0 0 92 0 0 0 0 0 0 0 0 0 0 0 0 0 66 0 0 0 13 0 0 0 0 28 0 7 0 0 16 0 0 90 0
0 0 0 36 0 0 0 0 0 4 0 0 0 0 0 0 3 0 0 0 0 0 84 0 0 0 24 0 0 0 0 0 0 0 0 0 0 0 0 0 0 0 0 0 0 0 0 0 0 0 0 0 0 0 0 0 0 0 0 36 0 0 0 0 51 0 0 0 0 0 0 0 0 0 0 0 0 0 0 6 0 0 0 0 0 0 0 0 0 0 0 0 20 0 0 0 0 0 0 0 0 0 0 18 0 43 0 0 0 0 0 3 0 0 0 0 0 0 0 0 0 0 33 0 0 21 0 86 0 0 0 0 0 0 0 0 0 0 0 0 0 0 0 0 0 0 0 0 0 0
11 35 14 0 0 0 0 0 0 0 0 0 0 0 16 0 0 0 96 0 0 33 0 0 0 0 0 0 85 0 0 0 0 6 0 0 42 0 0 0 0 0 0 0 0 0 0 0 0 11 0 0 0 0 0 0 0 0 95 0 0 14 37 0 0 0 0 0 24 0 0 0 0 0 0 0 0 0 0 30 0 37 0 0 0 50 0 0 0 65 60 0 0 0 0 0 72 0 0 0 0 0 0 0 46 0 0 0 0 0 0 81 0 0 0 0 0 0 0 55 31 0 73 0 46 0 0 0 0 86 97 0 42 0 0 0 0 0 21 0 43 0 0 0 48 0 0 0 76 0
21 0 0 0 0 83 97 0 0 0 42 0 0 0 0 0 0 0 0 0 0 0 1 0 0 0 0 73 0 0 0 0 0 0 0 0 0 0 49 8 0 0 0 0 0 0 0 0 0 0 0 32 0 0 0 0 0 0 0 0 0 0 0 0 0 0 0 0 0 45 0 0 0 0 0 0 0 0 0 0 0 35 77 0 0 0 0 0 0 0 0 0 0 0 0 0 0 40 67 0 0 0 0 0 0 0 0 0 0 0 73 0 0 36 66 0 76 0 9 0 0 0 0 0 0 0 0 0 0 0 0 0 61 0 0 0 0 0 0 0 1 0 0 0 0 0 0 0 0 79
0 0 0 0 35 0 0 0 0 0 0 0 0 96 0 0 0 0 0 0 0 80 0 0 93 0 0 0 0 0 0 0 0 0 0 42 0 17 0 0 0 83 0 0 0 0 0 0 82 63 0 0 0 0 0 99 0 0 0 0 0 0 0 46 0 0 51 0 0 0 0 0 0 0 0 40 83 0 0 0 64 0 0 0 73 0 0 0 0 41 0 0 69 0 0 0 0 0 0 52 0 0 0 59 0 0 0 0 0 0 0 0 0 14 0 0 28 0 0 0 0 0 0 0 0 0 66 0 0 0 0 0 0 0 0 7 0 0 0 0 0 0 0 0 0 0 0 55 0 16
0 27 0 0 0 0 0 0 0 0 0 0 0 3 34 0 0 0 86 0 0 84 45 0 58 0 0 0 0 0 0 0 10 0 0 0 0 0 46 4 0 0 0 0 0 0 0 0 0 0 0 0 0 0 0 0 0 0 0 0 73 0 0 0 0 0 0 0 0 0 0 0 0 0 0 0 0 0 63 67 0 0 0 0 0 0 0 0 0 0 25 0 0 0 0 0 0 0 0 91 0 0 0 0 0 0 0 0 0 0 0 0 46 0 0 0 0 53 0 0 0 0 0 0 0 46 0 95 0 58 0 0 0 89 63 0 0 0 0 0 73 0 0 0 0 53 31 51 0 0
0 0 0 0 74 0 0 0 8 64 0 0 0 67 0 0 0 0 0 91 0 0 0 25 48 0 0 66 16 0 0 0 0 0 0 0 0 0 86 0 0 16 0 0 0 0 12 0 0 92 0 0 0 54 0 0 0 0 0 0 0 0 0 26 0 12 0 22 0 70 0 0 0 0 0 0 0 0 0 80 0 0 0 0 0 0 0 0 0 0 0 0 48 0 0 0 32 0 78 0 0 0 0 0 0 0 29 0 0 0 0 0 0 0 0 0 0 2 0 68 0 0 9 0 0 0 0 0 0 0 0 0 0 0 0 0 0 0 0 69 0 0 0 77 0 0 0 0 0 0
58 0 0 36 0 91 0 0 0 0 9 0 0 72 0 0 33 0 0 73 0 0 0 0 92 0 0 0 0 0 0 0 14 0 0 0 0 0 0 21 0 0 0 0 0 0 0 0 0 0 0 0 0 0 0 0 0 0 0 0 0 0 0 0 0 0 0 0 0 82 0 0 0 0 0 70 88 0 0 0 0 0 0 0 0 56 0 0 0 0 0 51 15 0 0 0 0 0 0 0 0 0 0 0 0 0 0 0 0 38 0 0 0 0 0 0 0 41 0 0 0 0 0 0 0 0 0 0 0 0 0 0 0 0 0 0 0 0 0 0 0 43 0 0 0 0 0 0 0 0
0 0 0 0 0 0 0 0 0 0 0 0 0 16 0 0 0 0 0 0 16 75 0 0 0 0 35 0 0 0 0 0 0 0 0 0 89 0 0 25 0 0 16 78 0 82 0 0 0 41 0 0 99 85 0 0 0 0 3 0 0 0 0 0 90 0 0 0 0 0 0 16 0 0 17 0 0 0 0 0 97 0 0 0 0 9 3 53 0 0 0 0 0 0 3 0 0 0 0 0 0 0 0 0 0 0 0 0 0 0 0 0 0 0 0 0 0 8 0 0 0 0 0 24 0 0 0 57 2 0 0 0 0 69 0 0 0 0 0 0 0 0 84 0 0 0 0 0 0 0
0 0 0 0 0 0 0 0 0 0 38 0 64 0 32 0 0 0 0 0 44 0 0 0 0 0 0 0 0 98 0 0 5 0 0 0 42 0 0 0 0 0 0 0 0 0 15 0 0 0 26 99 0 0 0 0 0 58 0 0 0 0 0 0 88 0 3 69 0 0 0 0 0 50 0 18 43 0 0 0 71 0 0 0 0 0 0 74 0 0 0 0 0 0 0 0 0 0 0 0 0 0 85 0 0 0 0 0 0 0 57 0 0 0 0 0 0 0 0 0 0 0 0 0 0 0 0 25 0 68 0 0 0 0 2 0 57 0 57 0 0 0 0 0 0 0 0 0 0 0
0 0 0 0 0 0 0 0 0 0 0 0 0 35 11 0 0 0 0 0 0 0 0 0 9 0 0 0 0 29 0 0 0 0 0 0 0 0 0 0 0 0 0 5 0 21 0 0 0 0 0 0 0 0 0 0 0 0 0 36 0 0 0 0 0 0 0 2 0 0 0 0 0 0 0 0 40 0 18 0 0 0 0 0 0 0 6 0 0 0 0 0 0 0 44 2 0 0 37 7 0 0 0 0 0 0 0 0 0 0 0 9 0 13 0 0 0 0 0 0 0 0 0 0 0 0 0 0 0 61 0 0 0 0 0 67 0 0 0 0 0 0 0 22 0 0 9 0 51 0
0 0 0 0 0 0 0 5 2 0 0 0 65 0 0 0 0 0 0 0 0 0 0 0 0 0 0 0 0 0 44 45 11 0 0 0 0 0 0 0 0 0 0 0 0 0 0 0 0 0 0 0 0 0 0 0 0 0 0 0 0 0 0 0 0 0 0 0 0 0 0 0 0 0 0 0 0 2 0 0 0 0 0 0 0 0 0 0 64 0 0 0 0 0 0 0 0 0 0 74 0 0 60 2 37 0 0 0 54 0 0 0 0 0 0 9 12 0 0 0 0 0 0 20 12 2 0 0 39 0 0 0 0 0 0 30 0 0 0 0 0 0 0 0 0 0 0 0 0 0
0 0 0 0 0 0 0 0 0 36 0 0 51 0 0 0 0 0 0 0 0 0 0 0 0 0 0 0 0 15 0 0 0 0 0 0 43 0 0 0 0 0 0 0 0 0 0 0 0 0 0 0 0 3 0 0 0 0 0 0 6 0 0 0 0 25 0 29 0 0 0 0 0 0 0 0 0 0 0 0 0 0 0 0 0 0 0 39 15 46 0 0 0 1 0 0 0 0 0 0 0 0 0 0 0 0 0 3 0 0 0 0 0 0 5 0 8 0 0 0 0 0 0 0 0 0 48 0 0 0 0 0 0 0 4 0 0 0 0 65 0 0 0 73 0 0 0 0 0 0
0 0 0 0 0 0 0 0 0 0 0 16 0 0 0 0 0 0 12 83 0 0 0 0 75 39 0 0 0 0 0 0 0 0 0 0 0 0 0 0 0 0 0 0 0 0 0 0 0 31 46 1 0 0 0 39 0 11 0 0 0 0 0 0 0 0 0 0 0 0 0 0 0 0 0 0 0 0 0 0 0 0 0 0 0 0 0 0 0 0 14 12 0 0 0 0 0 0 0 70 0 0 0 6 12 0 0 0 0 0 0 0 0 0 0 0 42 0 0 0 0 0 0 0 0 0 0 0 0 27 0 0 0 0 0 0 0 23 0 46 0 0 0 0 0 0 12 0 0 0
0 0 10 0 17 26 0 0 0 0 0 0 0 0 0 0 0 32 0 13 0 0 0 0 7 0 0 0 0 0 0 0 0 0 9 12 0 0 0 0 0 0 0 19 0 0 0 0 62 0 0 0 0 50 10 0 0 0 3 38 0 0 0 0 0 0 0 0 0 0 0 0 0 0 9 0 0 0 25 0 0 0 0 0 26 0 0 30 0 0 0 0 0 6 0 0 0 0 52 0 0 14 0 0 49 0 18 0 0 0 44 5 0 0 0 0 0 0 0 0 0 0 0 0 0 0 18 0 0 0 0 0 0 0 0 0 0 11 0 0 0 0 0 0 0 0 0 0 0 0
0 0 0 0 0 0 43 0 0 0 0 0 0 0 0 25 0 0 5 0 0 0 0 0 0 0 0 3 0 0 0 23 0 0 0 0 0 0 0 0 0 0 0 8 0 0 0 0 0 0 0 0 43 0 0 0 0 0 0 19 0 0 55 0 0 0 0 0 0 26 0 0 90 0 0 25 0 0 37 0 0 0 0 0 0 30 0 0 0 0 0 49 0 0 0 0 10 0 0 24 0 0 0 0 0 0 0 0 0 0 0 0 0 0 0 0 0 0 0 0 0 0 0 0 0 0 0 1 0 0 0 0 0 0 0 0 0 0 0 0 39 0 0 30 0 0 0 0 46 0
0 0 0 0 0 0 0 0 0 0 0 0 0 0 0 0 0 0 17 0 0 4 0 0 0 0 0 0 0 0 0 0 0 0 0 0 0 0 0 0 0 36 0 0 0 0 12 0 0 0 0 0 0 0 6 0 0 21 0 21 0 0 4 0 2 0 0 0 0 0 0 17 0 54 0 0 1 0 0 0 0 5 0 0 0 0 0 0 0 15 0 0 49 0 0 10 40 0 0 0 0 69 0 16 0 0 0 64 0 0 0 0 0 43 0 50 0 6 0 0 0 0 65 0 0 0 0 0 0 0 0 0 21 0 0 0 0 0 0 0 0 0 0 0 0 0 51 0 0 0
0 0 19 0 0 0 0 0 25 0 0 0 0 3 0 34 0 0 3 0 0 0 0 0 0 0 0 0 0 0 7 0 19 0 0 0 0 0 10 0 0 0 0 0 20 0 0 0 0 0 0 0 0 0 0 0 0 0 0 0 0 0 0 0 0 0 0 0 0 0 0 0 51 0 0 0 0 0 0 0 37 0 0 35 0 0 0 0 0 0 0 0 0 0 0 0 0 0 0 0 0 0 0 0 0 0 0 0 0 0 0 0 0 0 0 0 0 0 0 0 0 73 0 0 0 0 0 0 47 0 34 0 0 0 0 10 0 15 0 0 0 28 0 0 5 0 0 0 0 0
0 0 0 0 18 0 0 0 0 0 0 0 0 0 0 0 0 0 31 0 0 0 0 0 0 2 0 0 0 0 0 0 0 0 0 0 8 0 0 2 0 0 1 0 0 0 0 0 18 0 0 0 0 0 0 13 0 0 0 0 0 0 0 54 0 0 0 0 0 0 48 0 0 0 0 0 3 0 0 0 0 78 0 0 3 0 0 0 66 0 0 0 9 0 0 0 0 0 0 22 0 36 0 14 0 4 0 14 0 0 0 0 6 63 20 9 0 0 0 0 0 0 0 0 0 0 6 0 50 0 0 0 0 0 65 0 14 0 0 0 0 0 0 0 0 0 0 0 10 0
10 93 0 0 0 0 0 0 0 0 0 0 0 0 0 0 0 0 58 0 0 0 0 0 36 0 0 0 2 0 0 0 0 0 0 0 0 0 0 21 0 0 0 0 0 0 0 0 0 0 0 0 0 0 0 0 0 0 0 11 0 5 0 30 0 0 0 0 0 0 0 10 0 0 0 0 0 0 80 0 0 13 3 0 0 20 0 45 0 11 0 10 0 0 0 0 0 23 0 0 0 0 0 0 0 0 0 0 0 0 0 0 0 0 1 0 15 0 0 9 0 0 0 0 3 0 87 4 0 0 89 0 0 0 0 84 0 34 0 0 0 0 0 0 0 0 0 0 0 0
0 0 0 0 27 33 0 0 0 0 0 0 0 0 0 0 0 0 0 0 0 0 0 45 0 0 0 0 0 0 0 0 0 0 23 0 0 0 0 0 0 53 0 0 0 0 0 0 80 0 66 0 0 0 0 0 0 0 0 52 0 0 0 0 0 0 0 0 0 0 0 0 0 0 0 0 0 0 0 31 0 0 0 0 0 0 0 0 0 0 37 0 0 0 0 0 0 0 0 0 0 0 74 0 0 16 55 0 0 0 0 0 0 0 0 0 0 36 0 0 0 0 0 0 0 0 0 0 0 0 0 12 0 0 0 8 0 0 0 0 9 0 0 0 0 2 0 0 64 0
0 0 0 4 0 0 0 0 0 0 0 0 0 0 0 0 1 0 0 0 0 0 42 0 0 0 6 0 0 0 0 0 0 0 0 0 0 0 0 0 0 0 0 0 0 0 0 0 0 0 0 0 0 0 0 0 0 0 0 1 0 0 0 0 43 0 0 0 0 0 0 0 0 0 0 0 0 0 0 2 0 0 0 0 0 0 0 0 0 0 0 0 15 0 0 0 0 0 0 0 0 0 0 16 0 25 0 0 0 0 0 2 0 0 0 0 0 0 0 0 0 0 3 0 0 11 0 42 0 0 0 0 0 0 0 0 0 0 0 0 0 0 0 0 0 0 0 0 0 0
8 13 9 0 0 0 0 0 0 0 0 0 0 0 0 0 0 0 79 0 0 25 0 0 0 0 0 0 74 0 0 0 0 5 0 0 13 0 0 0 0 0 0 0 0 0 0 0 0 9 0 0 0 0 0 0 0 0 48 0 0 4 4 0 0 0 0 0 5 0 0 0 0 0 0 0 0 0 0 7 0 15 0 0 0 24 0 0 0 44 27 0 0 0 0 0 41 0 0 0 0 0 0 0 41 0 0 0 0 0 0 13 0 0 0 0 0 0 0 20 0 0 3 0 25 0 0 0 0 29 15 0 7 0 0 0 0 0 19 0 13 0 0 0 2 0 0 0 56 0
18 0 0 0 0 22 13 0 0 0 2 0 0 0 0 0 0 0 0 0 0 0 0 0 0 0 0 24 0 0 0 0 0 0 0 0 0 0 48 4 0 0 0 0 0 0 0 0 0 0 0 25 0 0 0 0 0 0 0 0 0 0 0 0 0 0 0 0 0 40 0 0 0 0 0 0 0 0 0 0 0 2 26 0 0 0 0 0 0 0 0 0 0 0 0 0 0 24 59 0 0 0 0 0 0 0 0 0 0 0 51 0 0 28 51 0 73 0 0 0 0 0 0 0 0 0 0 0 0 0 0 0 38 0 0 0 0 0 0 0 0 0 0 0 0 0 0 0 0 67
0 0 0 0 27 0 0 0 0 0 0 0 0 55 0 0 0 0 0 0 0 55 0 0 11 0 0 0 0 0 0 0 0 0 0 19 0 0 0 0 0 53 0 0 0 0 0 0 0 53 0 0 0 0 0 50 0 0 0 0 0 0 0 24 0 0 21 0 0 0 0 0 0 0 0 17 61 0 0 0 43 0 0 0 17 0 0 0 0 9 0 0 38 0 0 0 0 0 0 16 0 0 0 27 0 0 0 0 0 0 0 0 0 2 0 0 27 0 0 0 0 0 0 0 0 0 34 0 0 0 0 0 0 0 0 3 0 0 0 0 0 0 0 0 0 0 0 45 0 10
0 17 0 0 0 0 0 0 0 0 0 0 0 1 1 0 0 0 31 0 0 34 23 0 25 0 0 0 0 0 0 0 3 0 0 0 0 0 16 1 0 0 0 0 0 0 0 0 0 0 0 0 0 0 0 0 0 0 0 0 59 0 0 0 0 0 0 0 0 0 0 0 0 0 0 0 0 0 37 35 0 0 0 0 0 0 0 0 0 0 14 0 0 0 0 0 0 0 0 46 0 0 0 0 0 0 0 0 0 0 0 0 31 0 0 0 0 51 0 0 0 0 0 0 0 27 0 90 0 50 0 0 0 11 9 0 0 0 0 0 49 0 0 0 0 38 9 30 0 0
0 0 0 0 43 0 0 0 7 50 0 0 0 24 0 0 0 0 0 11 0 0 0 23 12 0 0 21 8 0 0 0 0 0 0 0 0 0 7 0 0 0 0 0 0 0 6 0 0 39 0 0 0 22 0 0 0 0 0 0 0 0 0 23 0 7 0 15 0 4 0 0 0 0 0 0 0 0 0 39 0 0 0 0 0 0 0 0 0 0 0 0 30 0 0 0 6 0 35 0 0 0 0 0 0 0 26 0 0 0 0 0 0 0 0 0 0 1 0 17 0 0 3 0 0 0 0 0 0 0 0 0 0 0 0 0 0 0 0 54 0 0 0 48 0 0 0 0 0 0
47 0 0 8 0 42 0 0 0 0 7 0 0 57 0 0 10 0 0 0 0 0 0 0 1 0 0 0 0 0 0 0 3 0 0 0 0 0 0 0 0 0 0 0 0 0 0 0 0 0 0 0 0 0 0 0 0 0 0 0 0 0 0 0 0 0 0 0 0 19 0 0 0 0 0 64 78 0 0 0 0 0 0 0 0 45 0 0 0 0 0 46 2 0 0 0 0 0 0 0 0 0 0 0 0 0 0 0 0 12 0 0 0 0 0 0 0 25 0 0 0 0 0 0 0 0 0 0 0 0 0 0 0 0 0 0 0 0 0 0 0 16 0 0 0 0 0 0 0 0
0 0 0 0 0 0 0 0 0 0 0 0 0 0 0 0 0 0 0 0 9 14 0 0 0 0 3 0 0 0 0 0 0 0 0 0 18 0 0 8 0 0 14 21 0 52 0 0 0 40 0 0 83 65 0 0 0 0 2 0 0 0 0 0 3 0 0 0 0 0 0 10 0 0 2 0 0 0 0 0 95 0 0 0 0 0 2 19 0 0 0 0 0 0 0 0 0 0 0 0 0 0 0 0 0 0 0 0 0 0 0 0 0 0 0 0 0 1 0 0 0 0 0 1 0 0 0 47 1 0 0 0 0 54 0 0 0 0 0 0 0 0 37 0 0 0 0 0 0 0
0 0 0 0 0 0 0 0 0 0 31 0 27 0 6 0 0 0 0 0 41 0 0 0 0 0 0 0 0 24 0 0 1 0 0 0 19 0 0 0 0 0 0 0 0 0 0 0 0 0 9 34 0 0 0 0 0 43 0 0 0 0 0 0 50 0 1 65 0 0 0 0 0 23 0 16 12 0 0 0 20 0 0 0 0 0 0 31 0 0 0 0 0 0 0 0 0 0 0 0 0 0 78 0 0 0 0 0 0 0 5 0 0 0 0 0 0 0 0 0 0 0 0 0 0 0 0 20 0 60 0 0 0 0 0 0 55 0 31 0 0 0 0 0 0 0 0 0 0 0
